25 50
1 2 2
1 6 5
2 3 2
2 7 5
3 4 1
3 8 4
4 5 5
4 9 1
5 10 1
6 7 3
6 11 4
7 8 2
7 12 3
8 9 5
8 13 5
9 10 5
9 14 5
10 15 4
11 12 1
11 16 5
12 13 4
12 17 5
13 14 5
13 18 2
14 15 2
14 19 5
15 20 5
16 17 5
16 21 4
17 18 2
17 22 5
18 19 5
18 23 3
19 20 5
19 24 5
20 25 3
21 22 4
22 23 2
23 24 4
24 25 2
1 21 2
2 22 4
3 23 4
4 24 3
5 25 4
1 5 2
6 10 2
11 15 5
16 20 3
21 25 3
